c Standarized MaxSat Instance
c{
c "sha1sum": "7ceb32b9c221d40292a40f55020482c8892c7d43",
c "nvars": 28,
c "ncls": 196,
c "total_lits": 364,
c "nhards": 168,
c "nhard_nlits": 336,
c "nhard_len_stats":
c    { "min": 2,
c      "max": 2,
c      "ave": 2.0000,
c      "stddev": 0.0000 },
c "nsofts": 28,
c "nsoft_nlits": 28,
c "nsoft_len_stats":
c    { "min": 1,
c      "max": 1,
c      "ave": 1.0000,
c      "stddev": 0.0000 },
c "nsoft_wts": 1,
c "soft_wt_stats":
c    { "min": 1,
c      "max": 1,
c      "ave": 1.0000,
c      "stddev": 0.0000 }
c}
c------------------------------------------------------------
c File:  johnson8-2-4.clq
c
c Source: Panos Pardalos pardalos@math.ufl.edu
c
c Reference: Johnson graph: johnsona-b-c is generated by
c            binary vectors of length a and weight b, with
c            two vertices adjacent if the hamming distance
c            between them is at least d.
c
c PSEUDOBOOLEAN 28
1 -1 0
1 -2 0
1 -3 0
1 -4 0
1 -5 0
1 -6 0
1 -7 0
1 -8 0
1 -9 0
1 -10 0
1 -11 0
1 -12 0
1 -13 0
1 -14 0
1 -15 0
1 -16 0
1 -17 0
1 -18 0
1 -19 0
1 -20 0
1 -21 0
1 -22 0
1 -23 0
1 -24 0
1 -25 0
1 -26 0
1 -27 0
1 -28 0
h 1 2 0
h 1 3 0
h 1 4 0
h 1 5 0
h 1 7 0
h 1 8 0
h 1 11 0
h 1 12 0
h 1 16 0
h 1 17 0
h 1 22 0
h 1 23 0
h 2 3 0
h 2 4 0
h 2 6 0
h 2 7 0
h 2 9 0
h 2 11 0
h 2 13 0
h 2 16 0
h 2 18 0
h 2 22 0
h 2 24 0
h 3 5 0
h 3 6 0
h 3 8 0
h 3 9 0
h 3 12 0
h 3 13 0
h 3 17 0
h 3 18 0
h 3 23 0
h 3 24 0
h 4 5 0
h 4 6 0
h 4 7 0
h 4 10 0
h 4 11 0
h 4 14 0
h 4 16 0
h 4 19 0
h 4 22 0
h 4 25 0
h 5 6 0
h 5 8 0
h 5 10 0
h 5 12 0
h 5 14 0
h 5 17 0
h 5 19 0
h 5 23 0
h 5 25 0
h 6 9 0
h 6 10 0
h 6 13 0
h 6 14 0
h 6 18 0
h 6 19 0
h 6 24 0
h 6 25 0
h 7 8 0
h 7 9 0
h 7 10 0
h 7 11 0
h 7 15 0
h 7 16 0
h 7 20 0
h 7 22 0
h 7 26 0
h 8 9 0
h 8 10 0
h 8 12 0
h 8 15 0
h 8 17 0
h 8 20 0
h 8 23 0
h 8 26 0
h 9 10 0
h 9 13 0
h 9 15 0
h 9 18 0
h 9 20 0
h 9 24 0
h 9 26 0
h 10 14 0
h 10 15 0
h 10 19 0
h 10 20 0
h 10 25 0
h 10 26 0
h 11 12 0
h 11 13 0
h 11 14 0
h 11 15 0
h 11 16 0
h 11 21 0
h 11 22 0
h 11 27 0
h 12 13 0
h 12 14 0
h 12 15 0
h 12 17 0
h 12 21 0
h 12 23 0
h 12 27 0
h 13 14 0
h 13 15 0
h 13 18 0
h 13 21 0
h 13 24 0
h 13 27 0
h 14 15 0
h 14 19 0
h 14 21 0
h 14 25 0
h 14 27 0
h 15 20 0
h 15 21 0
h 15 26 0
h 15 27 0
h 16 17 0
h 16 18 0
h 16 19 0
h 16 20 0
h 16 21 0
h 16 22 0
h 16 28 0
h 17 18 0
h 17 19 0
h 17 20 0
h 17 21 0
h 17 23 0
h 17 28 0
h 18 19 0
h 18 20 0
h 18 21 0
h 18 24 0
h 18 28 0
h 19 20 0
h 19 21 0
h 19 25 0
h 19 28 0
h 20 21 0
h 20 26 0
h 20 28 0
h 21 27 0
h 21 28 0
h 22 23 0
h 22 24 0
h 22 25 0
h 22 26 0
h 22 27 0
h 22 28 0
h 23 24 0
h 23 25 0
h 23 26 0
h 23 27 0
h 23 28 0
h 24 25 0
h 24 26 0
h 24 27 0
h 24 28 0
h 25 26 0
h 25 27 0
h 25 28 0
h 26 27 0
h 26 28 0
h 27 28 0
